(set-logic QF_BV)
(declare-fun _substvar_2922_ () (_ BitVec 11))
(declare-fun _substvar_1066_ () (_ BitVec 11))
(declare-fun _substvar_2582_ () Bool)
(declare-fun _substvar_2412_ () Bool)
(declare-fun _substvar_2908_ () (_ BitVec 11))
(declare-fun _substvar_4384_ () Bool)
(declare-fun _substvar_1565_ () (_ BitVec 11))
(declare-fun _substvar_7528_ () Bool)
(declare-fun _substvar_1068_ () (_ BitVec 11))
(declare-fun _substvar_1394_ () (_ BitVec 11))
(declare-fun _substvar_3547_ () Bool)
(declare-fun _substvar_2501_ () Bool)
(declare-fun _substvar_3816_ () (_ BitVec 11))
(declare-fun _substvar_1071_ () (_ BitVec 11))
(declare-fun _substvar_2565_ () Bool)
(declare-fun _substvar_2380_ () Bool)
(declare-fun _substvar_1067_ () (_ BitVec 11))
(assert (and true _substvar_2412_ (= _substvar_2908_ (bvsub (_ bv127 11) (_ bv0 11)))))
(assert (or (and false false (= _substvar_3816_ (_ bv0 11))) (and true true (= _substvar_3816_ (bvsub (_ bv127 11) (_ bv1 11)))) false false false false false false false false false false false false false false false false false false false false false false false false false false false false false false (and true true true (= _substvar_3816_ (_ bv0 11))) false false false (and true true (bvugt _substvar_1565_ (_ bv135 11)) (= _substvar_3816_ (_ bv0 11))) false false false false false false false false false false false false (and _substvar_2565_ true true (= _substvar_3816_ (bvsub (_ bv647 11) _substvar_1565_))) (and true true (bvugt _substvar_1565_ (_ bv647 11)) (= _substvar_3816_ (bvsub _substvar_1565_ (_ bv647 11)))) false false false false false false false false false false false false false false false false false false false false false false false false))
(assert (or false false false false false false false (and true _substvar_2582_ true (= _substvar_1394_ (bvsub (_ bv0 11) (_ bv127 11)))) false false false false false false false false false false false false false false false false false false false false false false false false false false false false false false false false false false (and true true true (= _substvar_1394_ (bvsub (_ bv0 11) (bvshl (_ bv135 11) _substvar_1066_)))) false (and true _substvar_4384_ (= _substvar_1394_ (_ bv0 11))) false false false false false false false false false false false false false false (and true true true (= _substvar_1394_ (bvsub _substvar_3816_ (_ bv0 11)))) false false false false false false false false false false false false false false false false false false false false false false false false false false false false false false false false false false false false false false))
(assert (or false false false false (and (bvugt _substvar_1067_ _substvar_1068_) true (= _substvar_2922_ (_ bv0 11))) false false false false false false false false false false false false false false false false false false false (and true true (bvugt (bvshl (_ bv127 11) _substvar_1067_) (bvshl _substvar_1394_ _substvar_1068_)) (= _substvar_2922_ (bvsub (bvshl (_ bv127 11) _substvar_1067_) (bvshl _substvar_1394_ _substvar_1068_)))) false false (and true (bvugt (_ bv135 11) (bvshl (_ bv1 11) _substvar_1068_)) (= _substvar_2922_ (_ bv0 11))) false false false false false false false false false false false (and true true true (= _substvar_2922_ (bvsub _substvar_2908_ (_ bv135 11)))) false false false false false false false false false false false false false false false false false false false false false false false false false false false false false false false false false false false false false false false false false false false false false false false false false false false false false false false (and true true (bvugt (bvshl _substvar_2908_ _substvar_1067_) _substvar_3816_) (= _substvar_2922_ (bvsub (bvshl _substvar_2908_ _substvar_1067_) (bvshl _substvar_3816_ _substvar_1068_)))) (and true true _substvar_2501_ (= _substvar_2922_ (bvsub (bvshl _substvar_3816_ _substvar_1067_) (bvshl _substvar_2908_ _substvar_1068_)))) false false (and true true (bvugt _substvar_1394_ (bvshl _substvar_2908_ _substvar_1068_)) (= _substvar_2922_ (bvsub _substvar_1394_ (_ bv0 11)))) false (and true _substvar_3547_ (= _substvar_2922_ (bvsub _substvar_1565_ (_ bv1 11)))) false false false false (and true true _substvar_7528_ (= _substvar_2922_ (bvsub (bvshl _substvar_1565_ _substvar_1067_) (bvshl _substvar_3816_ _substvar_1068_)))) (and true true true (= _substvar_2922_ (bvsub (bvshl _substvar_3816_ _substvar_1067_) (bvshl _substvar_1565_ _substvar_1068_)))) false (and true true (bvugt _substvar_1565_ _substvar_1394_) (= _substvar_2922_ (bvsub (bvshl _substvar_1565_ _substvar_1067_) (bvshl _substvar_1394_ _substvar_1068_)))) (and true true (bvugt (bvshl _substvar_1394_ _substvar_1067_) (_ bv0 11)) (= _substvar_2922_ (bvsub (bvshl _substvar_1394_ _substvar_1067_) (bvshl _substvar_1565_ _substvar_1068_)))) false false false false false false false false false false false false false))
(assert (or false false false false false false false false false false false false false false false false false false false false false false false false false false false false false false false false false false false false false false false false false false false false false false false false false false false false false false _substvar_2380_ false false false false false false false false false false false false false false false false false false false false false false false false false false false false false false false false false false false false false false false false false false false false false false false false false false false false false false false false false false false false false false (and true true (= (_ bv0 11) (bvsub (_ bv0 11) _substvar_1565_))) false false false false false false false false false false false false false false false false false false false false false false false false false false false false false false false false false false false))
(assert (and true true true true true true true true true true (bvult _substvar_1067_ (_ bv11 11)) (bvult _substvar_1068_ (_ bv11 11)) true true))
(assert (or false (= (_ bv99 11) _substvar_1565_) (= (_ bv99 11) _substvar_3816_) (= (_ bv99 11) _substvar_1394_) (= (_ bv99 11) _substvar_2922_) false))
(assert (or false (= (_ bv367 11) _substvar_1565_) (= (_ bv367 11) _substvar_3816_) (= (_ bv367 11) _substvar_1394_) (= (_ bv367 11) _substvar_2922_) false))
(check-sat)
(exit)
